objective value:                                   -6
t_n_11                                              1 	(obj:-1)
t_n_369                                             1 	(obj:-1)
t_n_503                                             1 	(obj:-1)
t_n_678                                             1 	(obj:-1)
t_n_725                                             1 	(obj:-1)
t_n_836                                             1 	(obj:-1)
